2	25
465	686	984	434	41	574	327	1	440	57	50	100	370	805	38	667	887	262	652	246	786	590	58	216	29	
250	696	626	534	678	775	176	571	102	676	711	736	875	841	848	193	9	225	621	930	168	404	196	933	525	
4988	4988	
